500
1000
209
209
209
208
208
208
207
206
206
206
205
205
204
204
203
202
202
202
202
202
202
201
200
200
199
198
198
198
197
197
196
195
194
194
193
193
193
193
192
192
191
191
190
190
190
190
190
190
189
189
189
189
189
188
187
186
186
186
186
186
185
185
184
184
183
183
183
183
183
183
183
182
182
181
181
181
179
179
179
178
178
177
177
177
176
175
175
174
174
174
174
174
172
171
171
170
169
169
169
169
169
168
168
168
168
167
167
167
166
166
166
166
166
165
165
163
163
163
163
163
162
161
161
161
161
160
160
160
159
159
159
159
159
158
158
158
158
158
157
157
157
156
156
155
155
155
155
154
154
154
154
154
154
153
153
153
153
153
153
151
151
151
151
151
150
150
150
149
149
149
149
149
149
149
148
148
148
147
146
146
146
146
146
145
145
144
144
144
143
143
143
143
142
142
141
141
141
140
139
139
137
137
137
137
136
136
135
135
135
134
133
132
132
132
132
132
131
131
130
128
127
127
127
125
125
125
125
125
124
124
123
123
123
123
122
122
122
122
121
121
121
120
120
119
117
117
117
117
117
116
115
115
115
114
114
114
113
113
113
113
111
111
110
110
110
110
110
110
109
109
109
108
107
105
105
105
105
105
104
104
103
102
102
102
101
101
101
101
101
101
100
100
99
99
98
98
98
97
96
96
96
95
95
95
95
95
94
94
94
94
93
91
91
90
90
90
90
89
88
88
88
88
88
88
87
87
86
86
86
85
85
85
85
85
84
84
83
83
83
83
82
82
82
82
82
80
79
79
78
78
77
77
77
76
76
76
76
75
75
74
74
74
73
73
73
72
72
72
72
71
71
70
70
70
68
68
68
67
66
66
65
65
65
63
63
62
62
61
60
60
60
60
59
59
59
59
58
57
57
57
57
55
55
54
54
54
53
53
53
53
53
52
52
52
51
51
51
51
51
51
50
50
50
49
49
49
48
48
48
47
47
47
47
46
46
46
45
44
44
42
42
41
41
41
41
40
40
40
39
39
38
38
38
37
37
37
36
35
35
34
34
34
33
32
31
31
31
31
30
30
29
29
28
27
26
25
24
24
24
24
23
22
22
22
21
20
20
20
20
19
18
17
17
17
16
16
15
15
15
14
